\ENCODING=ISO-8859-1
\Problem name: IloCplex

Maximize
 obj: y(0)#0 + x8#7
Subject To
 c1: - 604.05 y(0)#0 + 25 x(0,0)#1 + 68.7 x(1,0)#2 + 68.7 x(2,0)#3
     + 204.05 x(3,0)#4 + 25 x(4,0)#5 + 400 x(5,0)#6  = 0
 c2: x(0,0)#1 <= 1
 c3: x(1,0)#2 <= 1
 c4: x(2,0)#3 <= 1
 c5: x(3,0)#4 <= 1
 c6: x(4,0)#5 <= 1
 c7: x(5,0)#6 <= 1
Bounds
 0 <= y(0)#0 <= 1
 0 <= x(0,0)#1 <= 1
 0 <= x(1,0)#2 <= 1
 0 <= x(2,0)#3 <= 1
 0 <= x(3,0)#4 <= 1
 0 <= x(4,0)#5 <= 1
 0 <= x(5,0)#6 <= 1
      x8#7 = 0
Binaries
 y(0)#0  x(0,0)#1  x(1,0)#2  x(2,0)#3  x(3,0)#4  x(4,0)#5  x(5,0)#6 
End
